Route #1: 21 46 60 54
Route #2: 7 33 55 22 58 51
Route #3: 49 53 16 23 61 24
Route #4: 18 5 3 42 19 10 59
Route #5: 29 6 27 35 8 37
Route #6: 39 45 1 41 2 9 12 14 40
Route #7: 62 50 57 32 47 11 34 44 31
Route #8: 20 28 13 26 4 38
Route #9: 17 56 15 25
Route #10: 48 36 30 43 52
Cost 1352.480671304967